unsat
(forall ((A (_ BitVec 7))
         (B (_ BitVec 23))
         (C (_ BitVec 1))
         (D (_ BitVec 1))
         (E (_ BitVec 4))
         (F (_ BitVec 30))
         (G (_ BitVec 4))
         (H (_ BitVec 1))
         (I (_ BitVec 32))
         (J (_ BitVec 1))
         (K (_ BitVec 1))
         (L (_ BitVec 1))
         (M (_ BitVec 32))
         (N (_ BitVec 1))
         (O (_ BitVec 1))
         (P (_ BitVec 1))
         (Q (_ BitVec 1))
         (R (_ BitVec 1))
         (S (_ BitVec 1))
         (T (_ BitVec 1))
         (U (_ BitVec 1))
         (V (_ BitVec 1))
         (W (_ BitVec 1))
         (X (_ BitVec 1))
         (Y (_ BitVec 1))
         (Z (_ BitVec 5))
         (A1 (_ BitVec 32))
         (B1 (_ BitVec 1))
         (C1 (_ BitVec 32))
         (D1 (_ BitVec 1))
         (E1 (_ BitVec 4))
         (F1 (_ BitVec 1))
         (G1 (_ BitVec 1))
         (H1 (_ BitVec 6))
         (I1 (_ BitVec 32))
         (J1 (_ BitVec 32))
         (K1 (_ BitVec 30))
         (L1 (_ BitVec 30))
         (M1 (_ BitVec 1))
         (N1 (_ BitVec 32))
         (O1 (_ BitVec 32))
         (P1 (_ BitVec 32))
         (Q1 (_ BitVec 1))
         (R1 (_ BitVec 32))
         (S1 (_ BitVec 1))
         (T1 (_ BitVec 5))
         (U1 (_ BitVec 1))
         (V1 (_ BitVec 15))
         (W1 (_ BitVec 7))
         (X1 (_ BitVec 1))
         (Y1 (_ BitVec 32))
         (Z1 (_ BitVec 1))
         (A2 (_ BitVec 1))
         (B2 (_ BitVec 1))
         (C2 (_ BitVec 32))
         (D2 (_ BitVec 1))
         (E2 (_ BitVec 1))
         (F2 (_ BitVec 1))
         (G2 (_ BitVec 1))
         (H2 (_ BitVec 1))
         (I2 (_ BitVec 32))
         (J2 (_ BitVec 1))
         (K2 (_ BitVec 1))
         (L2 (_ BitVec 1))
         (M2 (_ BitVec 4))
         (N2 (_ BitVec 1))
         (O2 (_ BitVec 1))
         (P2 (_ BitVec 1))
         (Q2 (_ BitVec 5))
         (R2 (_ BitVec 1))
         (S2 (_ BitVec 1))
         (T2 (_ BitVec 1))
         (U2 (_ BitVec 1))
         (V2 (_ BitVec 5))
         (W2 (_ BitVec 4))
         (X2 (_ BitVec 1))
         (Y2 (_ BitVec 32))
         (Z2 (_ BitVec 1))
         (A3 (_ BitVec 1))
         (B3 (_ BitVec 1))
         (C3 (_ BitVec 1))
         (D3 (_ BitVec 5))
         (E3 (_ BitVec 1))
         (F3 (_ BitVec 4))
         (G3 (_ BitVec 30))
         (H3 (_ BitVec 5))
         (I3 (_ BitVec 1))
         (J3 (_ BitVec 1))
         (K3 (_ BitVec 4))
         (L3 (_ BitVec 64))
         (M3 (_ BitVec 2))
         (N3 (_ BitVec 1))
         (O3 (_ BitVec 1))
         (P3 (_ BitVec 1))
         (Q3 (_ BitVec 1))
         (R3 (_ BitVec 1))
         (S3 (_ BitVec 1))
         (T3 (_ BitVec 1))
         (U3 (Array (_ BitVec 5) (_ BitVec 32)))
         (V3 (_ BitVec 1))
         (W3 (_ BitVec 1))
         (X3 (_ BitVec 1))
         (Y3 (_ BitVec 1))
         (Z3 (_ BitVec 1))
         (A4 (_ BitVec 1))
         (B4 (_ BitVec 1))
         (C4 (_ BitVec 1))
         (D4 (_ BitVec 1))
         (E4 (_ BitVec 1))
         (F4 (_ BitVec 1))
         (G4 (_ BitVec 1))
         (H4 (_ BitVec 1))
         (I4 (_ BitVec 1))
         (J4 (_ BitVec 1))
         (K4 (_ BitVec 7))
         (L4 (_ BitVec 1))
         (M4 (_ BitVec 32))
         (N4 (_ BitVec 1))
         (O4 (_ BitVec 1))
         (P4 (_ BitVec 1))
         (Q4 (_ BitVec 1))
         (R4 (_ BitVec 6))
         (S4 (_ BitVec 1))
         (T4 (_ BitVec 7))
         (U4 (_ BitVec 4))
         (V4 (_ BitVec 4))
         (W4 (_ BitVec 1))
         (X4 (_ BitVec 8))
         (Y4 (_ BitVec 5))
         (Z4 (_ BitVec 1))
         (A5 (_ BitVec 5))
         (B5 (_ BitVec 1))
         (C5 (_ BitVec 7))
         (D5 (_ BitVec 1))
         (E5 (_ BitVec 5))
         (F5 (_ BitVec 1))
         (G5 (_ BitVec 1))
         (H5 (_ BitVec 1))
         (I5 (_ BitVec 8))
         (J5 (_ BitVec 1))
         (K5 (_ BitVec 1))
         (L5 (_ BitVec 1))
         (M5 (_ BitVec 1))
         (N5 (_ BitVec 1))
         (O5 (_ BitVec 4))
         (P5 (_ BitVec 1))
         (Q5 (_ BitVec 1))
         (R5 (_ BitVec 1))
         (S5 (_ BitVec 1))
         (T5 (_ BitVec 1))
         (U5 (_ BitVec 32))
         (V5 (_ BitVec 1))
         (W5 (_ BitVec 32))
         (X5 (_ BitVec 2))
         (Y5 (_ BitVec 1))
         (Z5 (_ BitVec 1))
         (A6 (_ BitVec 32))
         (B6 (_ BitVec 1))
         (C6 (_ BitVec 1))
         (D6 (_ BitVec 1))
         (E6 (_ BitVec 1))
         (F6 (_ BitVec 1))
         (G6 (_ BitVec 1))
         (H6 (_ BitVec 1))
         (I6 (_ BitVec 23))
         (J6 (_ BitVec 32))
         (K6 (_ BitVec 1))
         (L6 (_ BitVec 1))
         (M6 (_ BitVec 1))
         (N6 (_ BitVec 1))
         (O6 (_ BitVec 6))
         (P6 (_ BitVec 32))
         (Q6 (_ BitVec 32))
         (R6 (_ BitVec 32))
         (S6 (_ BitVec 1))
         (T6 (_ BitVec 32))
         (U6 (_ BitVec 1))
         (V6 (_ BitVec 1))
         (W6 (_ BitVec 1))
         (X6 (_ BitVec 4))
         (Y6 (_ BitVec 1))
         (Z6 (_ BitVec 1))
         (A7 (_ BitVec 1))
         (B7 (_ BitVec 1))
         (C7 (_ BitVec 1))
         (D7 (_ BitVec 1))
         (E7 (_ BitVec 1))
         (F7 (_ BitVec 1))
         (G7 (_ BitVec 1))
         (H7 (_ BitVec 6))
         (I7 (_ BitVec 1))
         (J7 (Array (_ BitVec 4) (_ BitVec 8)))
         (K7 (_ BitVec 1))
         (L7 (_ BitVec 1))
         (M7 (_ BitVec 1))
         (N7 (_ BitVec 1))
         (O7 (_ BitVec 1))
         (P7 (_ BitVec 3))
         (Q7 (_ BitVec 4))
         (R7 (_ BitVec 2))
         (S7 (_ BitVec 1))
         (T7 (_ BitVec 1))
         (U7 (_ BitVec 8))
         (V7 (_ BitVec 8))
         (W7 (_ BitVec 1))
         (X7 (_ BitVec 2))
         (Y7 (_ BitVec 2))
         (Z7 (_ BitVec 1))
         (A8 (_ BitVec 1))
         (B8 (_ BitVec 1))
         (C8 (_ BitVec 32))
         (D8 (_ BitVec 1))
         (E8 (_ BitVec 7))
         (F8 (_ BitVec 1))
         (G8 (_ BitVec 1))
         (H8 (_ BitVec 5))
         (I8 (_ BitVec 32))
         (J8 (_ BitVec 1))
         (K8 (_ BitVec 1))
         (L8 (_ BitVec 1))
         (M8 (_ BitVec 32))
         (N8 (_ BitVec 1))
         (O8 (_ BitVec 1))
         (P8 (_ BitVec 1)))
  (! (let ((a!1 (or ((_ bit2bool 23) Y2)
                    ((_ bit2bool 31) Y2)
                    (not ((_ bit2bool 0) M1))
                    (not ((_ bit2bool 0) D2))
                    (not (= ((_ extract 1 1) Q7) #b1))
                    (not (= I3 #b1))))
           (a!2 (or (= Y #b1)
                    ((_ bit2bool 23) Y2)
                    ((_ bit2bool 31) Y2)
                    (not ((_ bit2bool 0) M1))
                    (not (= ((_ extract 1 1) Q7) #b1))
                    (not (= D2 #b1)))))
     (let ((a!3 (and (or (= ((_ extract 0 0) K3) #b1)
                         (= G2 #b0)
                         (not ((_ bit2bool 0) Q7)))
                     (= Q3 #b0)
                     (or (= C3 #b0) (not (= E2 #b1)))
                     (or (= A2 #b0) (not (= B6 #b1)))
                     (or ((_ bit2bool 0) N4)
                         (not (= Z2 #b0))
                         (not ((_ bit2bool 0) X3)))
                     (or ((_ bit2bool 0) D2) (not ((_ bit2bool 0) Q1)))
                     (or (= G2 #b0) (= P2 #b0))
                     (or (not ((_ bit2bool 0) Q1)) (not (= A3 #b0)))
                     (or (not (= O4 #b1)) (not (= S6 #b1)))
                     (or (= S6 #b0)
                         ((_ bit2bool 0) D2)
                         (not ((_ bit2bool 0) M1)))
                     (or (not ((_ bit2bool 0) O4)) (not ((_ bit2bool 0) G2)))
                     (or ((_ bit2bool 0) S4)
                         (not ((_ bit2bool 0) Y))
                         (not (= C3 #b1)))
                     (or (= ((_ extract 26 25) Y2) #b10)
                         (not ((_ bit2bool 0) M1))
                         (not ((_ bit2bool 0) G2)))
                     (or (not ((_ bit2bool 0) F4)) (not ((_ bit2bool 0) G2)))
                     (or ((_ bit2bool 0) J5) (not ((_ bit2bool 0) G2)))
                     (or (not (= F7 #b1)) (not (= A2 #b1)))
                     (not (= Q4 #b1))
                     (or (= O6 #b000000)
                         (not ((_ bit2bool 0) M1))
                         (not ((_ bit2bool 0) G2)))
                     (or ((_ bit2bool 4) W1)
                         (= ((_ extract 4 0) W1) #b01111)
                         (not ((_ bit2bool 5) W1)))
                     (or (not ((_ bit2bool 0) G2)) (not (= Q7 #x1)))
                     (or (= I3 #b0)
                         (= A2 #b0)
                         ((_ bit2bool 0) W7)
                         (not ((_ bit2bool 0) K3))
                         (not (= T3 #b1)))
                     (or (not (= T3 #b1)) (not (= V3 #b1)))
                     (or (not ((_ bit2bool 0) W4)) (not (= T3 #b1)))
                     (or (not ((_ bit2bool 0) H5)) (not (= T3 #b1)))
                     (or (not ((_ bit2bool 0) N6))
                         (not (= O6 #b000000))
                         (= C3 #b0))
                     (or (= A2 #b0) (not (= L4 #b0)))
                     (or (= L4 #b0) (not ((_ bit2bool 0) U1)) (= F1 #b0))
                     (or ((_ bit2bool 0) X2) (not ((_ bit2bool 0) J3)))
                     (or (not (= A3 #b0))
                         (not ((_ bit2bool 3) Q7))
                         (not (= G2 #b1)))
                     (or ((_ bit2bool 0) B2)
                         (not ((_ bit2bool 0) M1))
                         (not ((_ bit2bool 0) G2))
                         (not (= F1 #b1)))
                     (or (= Y3 #b0)
                         ((_ bit2bool 0) N4)
                         (not (= P3 #b0))
                         (not (= X3 #b1)))
                     (or ((_ bit2bool 0) W7)
                         (not ((_ bit2bool 0) Q7))
                         (not (= G2 #b1))
                         (not (= T3 #b1))
                         (not (= I3 #b1)))
                     a!1
                     (or (not ((_ bit2bool 0) M1))
                         (not ((_ bit2bool 0) D2))
                         (not ((_ bit2bool 31) Y2))
                         (not (= I3 #b1))
                         (not (= Q7 #x5)))
                     a!2
                     (or (= X #b0) (= K6 #b0))
                     (or (= R2 #b0) (= A2 #b0) (not (= Z2 #b0)))
                     (or (= C3 #b0)
                         ((_ bit2bool 3) Q7)
                         (not ((_ bit2bool 2) Q7))
                         (not ((_ bit2bool 31) Y2)))
                     (or (= R4 #b000000)
                         (not (= O6 #b000000))
                         (not ((_ bit2bool 0) N6)))
                     (or (= S6 #b0)
                         ((_ bit2bool 31) Y2)
                         (not ((_ bit2bool 0) M1)))
                     (or (not ((_ bit2bool 6) W1)) (= X #b0))
                     (or (= R2 #b0) (not (= X3 #b0)) (not (= B2 #b1)))
                     (or ((_ bit2bool 0) C3) (= X #b0))
                     (or (not (= X #b1)) (not (= A2 #b1)) (not (= A3 #b1)))
                     (or (not (= J5 #b0)) (= X #b0))
                     (or (= R2 #b0) (= Y #b1) (not (= X3 #b0))))))
       (= (INV!slice!1 A
                       B
                       C
                       D
                       E
                       F
                       G
                       H
                       I
                       J
                       K
                       L
                       M
                       N
                       O
                       P
                       Q
                       R
                       S
                       T
                       U
                       V
                       W
                       X
                       Y
                       Z
                       A1
                       B1
                       C1
                       D1
                       E1
                       F1
                       G1
                       H1
                       I1
                       J1
                       K1
                       L1
                       M1
                       N1
                       O1
                       P1
                       Q1
                       R1
                       S1
                       T1
                       U1
                       V1
                       W1
                       X1
                       Y1
                       Z1
                       A2
                       B2
                       C2
                       D2
                       E2
                       F2
                       G2
                       H2
                       I2
                       J2
                       K2
                       L2
                       M2
                       N2
                       O2
                       P2
                       Q2
                       R2
                       S2
                       T2
                       U2
                       V2
                       W2
                       X2
                       Y2
                       Z2
                       A3
                       B3
                       C3
                       D3
                       E3
                       F3
                       G3
                       H3
                       I3
                       J3
                       K3
                       L3
                       M3
                       N3
                       O3
                       P3
                       Q3
                       R3
                       S3
                       T3
                       U3
                       V3
                       W3
                       X3
                       Y3
                       Z3
                       A4
                       B4
                       C4
                       D4
                       E4
                       F4
                       G4
                       H4
                       I4
                       J4
                       K4
                       L4
                       M4
                       N4
                       O4
                       P4
                       Q4
                       R4
                       S4
                       T4
                       U4
                       V4
                       W4
                       X4
                       Y4
                       Z4
                       A5
                       B5
                       C5
                       D5
                       E5
                       F5
                       G5
                       H5
                       I5
                       J5
                       K5
                       L5
                       M5
                       N5
                       O5
                       P5
                       Q5
                       R5
                       S5
                       T5
                       U5
                       V5
                       W5
                       X5
                       Y5
                       Z5
                       A6
                       B6
                       C6
                       D6
                       E6
                       F6
                       G6
                       H6
                       I6
                       J6
                       K6
                       L6
                       M6
                       N6
                       O6
                       P6
                       Q6
                       R6
                       S6
                       T6
                       U6
                       V6
                       W6
                       X6
                       Y6
                       Z6
                       A7
                       B7
                       C7
                       D7
                       E7
                       F7
                       G7
                       H7
                       I7
                       J7
                       K7
                       L7
                       M7
                       N7
                       O7
                       P7
                       Q7
                       R7
                       S7
                       T7
                       U7
                       V7
                       W7
                       X7
                       Y7
                       Z7
                       A8
                       B8
                       C8
                       D8
                       E8
                       F8
                       G8
                       H8
                       I8
                       J8
                       K8
                       L8
                       M8
                       N8
                       O8
                       P8)
          a!3)))
     :weight 0))
